(set-logic UFDT)
(declare-datatypes ((nat 0)) (((zero) (s (s0 nat)))))
(declare-fun add (nat nat) nat)
(injective add (true true))
(declare-fun leq (nat nat) Bool)
(assert (forall ((y nat)) (= (add zero y) y)))
(assert (forall ((x nat) (y nat)) (= (add (s x) y) (s (add x y)))))
(assert (forall ((y nat)) (leq zero y)))
(assert (forall ((x nat)) (not (leq (s x) zero))))
(assert (forall ((x nat) (y nat)) (= (leq (s x) (s y)) (leq x y))))
(assert (not (forall ((v0 nat) (v1 nat) (v2 nat) (v3 nat) (v4 nat) (v5 nat) (v6 nat) (v7 nat)) (= (add (s (add (s (s (s (add (s v3) (add (s (add (s v7) (s v2))) (s v4)))))) (s (add (s v5) (s (s v5)))))) (add (s (add v6 (s v0))) v1)) (s (s (s (s (add (add (s (add (add (s (s v1)) (add v7 v4)) (s v6))) v0) (add (s (add v5 v3)) (s (add (s (s (s (s (s v5))))) v2))))))))))))
(check-sat)
